20
40
1159
1108
972
942
907
829
708
653
543
381
363
318
312
253
235
193
171
162
78
32
10	795
15	850
96	239
314	683
383	579
522	766
487	603
698	828
795	932
591	682
845	958
451	459
574	566
801	718
334	275
352	282
409	275
918	420
954	233
756	85
7	289
57	840
71	528
194	876
325	570
391	678
501	740
342	424
540	589
569	608
624	644
639	610
815	711
970	760
858	589
551	352
997	334
719	239
438	55
745	93
